50

98 2 313
96 24 420
96 14 361
87 10 385
87 6 298
87 16 364
86 17 340
85 18 336
83 22 389
83 25 471
82 10 311
81 13 301
77 19 231
74 19 230
67 9 441
65 6 466
64 15 377
64 18 197
63 16 463
60 17 386
57 6 452
57 7 279
56 12 310
55 17 355
50 12 210
49 13 197
46 2 273
43 4 174
43 3 278
42 13 456
37 10 304
33 3 407
31 7 188
31 5 180
27 5 348
27 8 251
26 4 448
25 8 216
23 7 319
23 5 230
19 4 226
18 6 423
15 4 467
13 2 403
10 3 386
9 2 372
6 2 165
3 1 69
2 1 223
1 1 239
